61
125
87	2
86	8
85	2
84	3
83	3
82	6
80	5
79	4
78	5
77	4
76	3
75	6
74	2
73	3
72	2
71	3
70	5
69	5
68	4
67	3
66	1
65	4
64	1
63	5
62	4
61	4
60	3
59	1
58	5
57	5
56	2
55	2
54	6
53	5
52	1
51	2
50	5
49	3
48	3
47	4
46	5
45	2
44	2
43	2
42	3
41	4
40	2
39	2
38	5
37	2
36	3
35	3
33	2
32	1
31	3
30	2
29	1
28	2
27	6
26	2
25	2
